NAME : census.pruned_global_4.tour
TYPE : TOUR
DIMENSION : 68
TOUR_SECTION
1
2
3
8
9
32
34
35
37
40
47
49
52
63
64
65
4
7
10
11
12
13
14
15
16
17
18
19
20
21
22
23
24
26
28
29
30
31
36
38
41
42
44
45
46
48
51
53
55
56
57
58
59
60
61
62
5
6
25
27
33
39
43
50
54
66
67
68
-1
EOF
